src/benchmarks/CLIA_Track_IF/original_sygus/fg_max2.sl.smt
(declare-fun x! () Int)
(declare-fun y! () Int)
(define-fun max2 ((x Int) (y Int)) Int    x)
(assert (or (not (>= (max2 x! y! ) x! )) (not (>= (max2 x! y! ) y! )) (not (or (= x! (max2 x! y! ) ) (= y! (max2 x! y! ) ) )) ))
(check-sat)
(get-model)